solution status: optimal solution found
objective value:                     248616.073133268
d11(0,0)                                            1 	(obj:0)
d11(1,1)                                            1 	(obj:0)
d11(2,3)                                            1 	(obj:0)
d11(2,4)                                            1 	(obj:0)
d11(2,5)                                            1 	(obj:0)
d11(4,15)                                           1 	(obj:0)
d11(4,16)                                           1 	(obj:0)
d11(4,17)                                           1 	(obj:0)
d11(4,18)                                           1 	(obj:0)
d11(4,19)                                           1 	(obj:0)
d11(4,20)                                           1 	(obj:0)
d11(4,21)                                           1 	(obj:0)
d11(4,22)                                           1 	(obj:0)
d11(4,23)                                           1 	(obj:0)
d11(4,24)                                           1 	(obj:0)
d11(4,25)                                           1 	(obj:0)
d11(4,26)                                           1 	(obj:0)
d11(4,27)                                           1 	(obj:0)
d11(4,28)                                           1 	(obj:0)
d11(4,29)                                           1 	(obj:0)
d11(4,30)                                           1 	(obj:0)
d11(5,31)                                           1 	(obj:0)
d11(5,32)                                           1 	(obj:0)
d11(5,33)                                           1 	(obj:0)
d11(5,34)                                           1 	(obj:0)
d11(5,35)                                           1 	(obj:0)
d11(5,36)                                           1 	(obj:0)
d11(5,37)                                           1 	(obj:0)
d11(5,39)                                           1 	(obj:0)
d11(5,40)                                           1 	(obj:0)
d11(5,41)                                           1 	(obj:0)
d11(5,42)                                           1 	(obj:0)
d11(5,43)                                           1 	(obj:0)
d11(5,45)                                           1 	(obj:0)
d11(5,46)                                           1 	(obj:0)
d11(5,47)                                           1 	(obj:0)
d11(5,48)                                           1 	(obj:0)
d11(5,49)                                           1 	(obj:0)
d11(5,51)                                           1 	(obj:0)
d11(5,52)                                           1 	(obj:0)
d11(5,53)                                           1 	(obj:0)
d11(5,54)                                           1 	(obj:0)
d11(5,55)                                           1 	(obj:0)
d11(5,56)                                           1 	(obj:0)
d11(5,57)                                           1 	(obj:0)
d11(5,58)                                           1 	(obj:0)
d11(5,59)                                           1 	(obj:0)
d11(5,60)                                           1 	(obj:0)
d11(5,61)                                           1 	(obj:0)
d11(5,62)                                           1 	(obj:0)
d11(6,63)                                           1 	(obj:0)
d11(6,64)                                           1 	(obj:0)
d11(6,65)                                           1 	(obj:0)
d11(6,66)                                           1 	(obj:0)
d11(6,67)                                           1 	(obj:0)
d11(6,68)                                           1 	(obj:0)
d11(6,69)                                           1 	(obj:0)
d11(6,70)                                           1 	(obj:0)
d11(6,71)                                           1 	(obj:0)
d11(6,72)                                           1 	(obj:0)
d11(6,73)                                           1 	(obj:0)
d11(6,74)                                           1 	(obj:0)
d11(6,75)                                           1 	(obj:0)
d11(6,76)                                           1 	(obj:0)
d11(6,77)                                           1 	(obj:0)
d11(6,78)                                           1 	(obj:0)
d11(6,79)                                           1 	(obj:0)
d11(6,80)                                           1 	(obj:0)
d11(6,81)                                           1 	(obj:0)
d11(6,82)                                           1 	(obj:0)
d11(6,83)                                           1 	(obj:0)
d11(6,84)                                           1 	(obj:0)
d11(6,85)                                           1 	(obj:0)
d11(6,86)                                           1 	(obj:0)
d11(6,87)                                           1 	(obj:0)
d11(6,88)                                           1 	(obj:0)
d11(6,89)                                           1 	(obj:0)
d11(6,90)                                           1 	(obj:0)
d11(6,91)                                           1 	(obj:0)
d11(6,92)                                           1 	(obj:0)
d11(6,93)                                           1 	(obj:0)
d11(6,94)                                           1 	(obj:0)
d11(6,95)                                           1 	(obj:0)
d11(6,96)                                           1 	(obj:0)
d11(6,97)                                           1 	(obj:0)
d11(6,98)                                           1 	(obj:0)
d11(6,99)                                           1 	(obj:0)
d11(6,100)                                          1 	(obj:0)
d11(6,101)                                          1 	(obj:0)
d11(6,103)                                          1 	(obj:0)
d11(6,104)                                          1 	(obj:0)
d11(6,105)                                          1 	(obj:0)
d11(6,107)                                          1 	(obj:0)
d11(6,108)                                          1 	(obj:0)
d11(6,109)                                          1 	(obj:0)
d11(6,111)                                          1 	(obj:0)
d11(6,112)                                          1 	(obj:0)
d11(6,113)                                          1 	(obj:0)
d11(6,114)                                          1 	(obj:0)
d11(6,115)                                          1 	(obj:0)
d11(6,116)                                          1 	(obj:0)
d11(6,117)                                          1 	(obj:0)
d11(6,118)                                          1 	(obj:0)
d11(6,119)                                          1 	(obj:0)
d11(6,120)                                          1 	(obj:0)
d11(6,121)                                          1 	(obj:0)
d11(6,122)                                          1 	(obj:0)
d11(6,123)                                          1 	(obj:0)
d11(6,124)                                          1 	(obj:0)
d11(6,125)                                          1 	(obj:0)
d11(6,126)                                          1 	(obj:0)
d12(3,8)                                            1 	(obj:0)
d12(3,10)                                           1 	(obj:0)
d12(3,12)                                           1 	(obj:0)
d12(3,14)                                           1 	(obj:0)
d21(5,31)                                           1 	(obj:0)
d21(5,32)                                           1 	(obj:0)
d21(5,33)                                           1 	(obj:0)
d21(5,35)                                           1 	(obj:0)
d21(5,39)                                           1 	(obj:0)
d21(5,47)                                           1 	(obj:0)
d21(6,63)                                           1 	(obj:0)
d21(6,64)                                           1 	(obj:0)
d21(6,65)                                           1 	(obj:0)
d21(6,66)                                           1 	(obj:0)
d21(6,67)                                           1 	(obj:0)
d21(6,68)                                           1 	(obj:0)
d21(6,69)                                           1 	(obj:0)
d21(6,71)                                           1 	(obj:0)
d21(6,72)                                           1 	(obj:0)
d21(6,73)                                           1 	(obj:0)
d21(6,74)                                           1 	(obj:0)
d21(6,75)                                           1 	(obj:0)
d21(6,76)                                           1 	(obj:0)
d21(6,77)                                           1 	(obj:0)
d21(6,79)                                           1 	(obj:0)
d21(6,80)                                           1 	(obj:0)
d21(6,81)                                           1 	(obj:0)
d21(6,82)                            1.00000000000008 	(obj:0)
d21(6,83)                                           1 	(obj:0)
d21(6,87)                                           1 	(obj:0)
d21(6,88)                                           1 	(obj:0)
d21(6,89)                                           1 	(obj:0)
d21(6,91)                                           1 	(obj:0)
d21(6,95)                                           1 	(obj:0)
d21(6,96)                                           1 	(obj:0)
d21(6,97)                                           1 	(obj:0)
d21(6,98)                                           1 	(obj:0)
d21(6,99)                                           1 	(obj:0)
d21(6,103)                                          1 	(obj:0)
d21(6,104)                                          1 	(obj:0)
d21(6,105)                                          1 	(obj:0)
d21(6,107)                                          1 	(obj:0)
d21(6,111)                                          1 	(obj:0)
d21(6,119)                                          1 	(obj:0)
STE(1,1)                             8484.75010111115 	(obj:0)
STE(0,0)                                        11025 	(obj:0)
STE(1,2)                                        10143 	(obj:0)
STE(2,3)                             5944.50020222226 	(obj:0)
STE(2,4)                             7602.75010111108 	(obj:0)
STE(2,5)                             7602.75010119299 	(obj:0)
STE(2,6)                             9260.99999999862 	(obj:0)
STE(3,7)                             5062.50020222226 	(obj:0)
STE(3,8)                              6378.7142880988 	(obj:0)
STE(3,9)                             6720.75010111108 	(obj:0)
STE(3,10)                            8036.96418698762 	(obj:0)
STE(3,11)                            6720.75010119299 	(obj:0)
STE(3,12)                             8036.9641870695 	(obj:0)
STE(3,13)                            8379.00000008181 	(obj:0)
STE(3,14)                            9695.21408587513 	(obj:0)
STE(4,15)                            1208.25010102927 	(obj:0)
STE(4,16)                            2866.49999991808 	(obj:0)
STE(4,17)                             2524.4641869058 	(obj:0)
STE(4,18)                            4182.71408579462 	(obj:0)
STE(4,19)                            2866.49999991808 	(obj:0)
STE(4,20)                            4524.74989880685 	(obj:0)
STE(4,21)                            4182.71408579462 	(obj:0)
STE(4,22)                            5840.96398468344 	(obj:0)
STE(4,23)                            2866.49999999999 	(obj:0)
STE(4,24)                            4524.74989888881 	(obj:0)
STE(4,25)                             4182.7140858765 	(obj:0)
STE(4,26)                            5840.96398476533 	(obj:0)
STE(4,27)                            4524.74989888881 	(obj:0)
STE(4,28)                            6182.99979777763 	(obj:0)
STE(4,29)                            5840.96398468213 	(obj:0)
STE(4,30)                            7499.21388357095 	(obj:0)
STE(5,31)                           -1331.99979785955 	(obj:0)
STE(5,32)                            326.250101029266 	(obj:0)
STE(5,33)                            326.250101029264 	(obj:0)
STE(5,34)                            1984.49999991808 	(obj:0)
STE(5,35)                           -15.7857119830144 	(obj:0)
STE(5,36)                             1642.4641869058 	(obj:0)
STE(5,37)                             1642.4641869058 	(obj:0)
STE(5,38)                            3300.71408579462 	(obj:0)
STE(5,39)                            326.250101029266 	(obj:0)
STE(5,40)                            1984.49999991808 	(obj:0)
STE(5,41)                            1984.49999991804 	(obj:0)
STE(5,42)                            3642.74989880685 	(obj:0)
STE(5,43)                             1642.4641869058 	(obj:0)
STE(5,44)                            3300.71408579462 	(obj:0)
STE(5,45)                            3300.71408579462 	(obj:0)
STE(5,46)                            4958.96398468344 	(obj:0)
STE(5,47)                            326.250101111176 	(obj:0)
STE(5,48)                            1984.49999999999 	(obj:0)
STE(5,49)                            1984.49999999999 	(obj:0)
STE(5,50)                            3642.74989888881 	(obj:0)
STE(5,51)                            1642.46418698768 	(obj:0)
STE(5,52)                             3300.7140858765 	(obj:0)
STE(5,53)                            3300.71408587652 	(obj:0)
STE(5,54)                            4958.96398476533 	(obj:0)
STE(5,55)                            1984.49999999999 	(obj:0)
STE(5,56)                            3642.74989888881 	(obj:0)
STE(5,57)                            3642.74989888881 	(obj:0)
STE(5,58)                            5300.99979777763 	(obj:0)
STE(5,59)                            3300.71408579331 	(obj:0)
STE(5,60)                            4958.96398468213 	(obj:0)
STE(5,61)                            4958.96398468213 	(obj:0)
STE(5,62)                            6617.21388357095 	(obj:0)
STE(6,63)                           -3872.24969674836 	(obj:0)
STE(6,64)                           -2213.99979785955 	(obj:0)
STE(6,65)                           -2213.99979785954 	(obj:0)
STE(6,66)                           -555.749898970734 	(obj:0)
STE(6,67)                           -2213.99979785955 	(obj:0)
STE(6,68)                           -555.749898970728 	(obj:0)
STE(6,69)                           -555.749898970728 	(obj:0)
STE(6,70)                            1102.49999991802 	(obj:0)
STE(6,71)                           -2556.03561087182 	(obj:0)
STE(6,72)                           -897.785711983006 	(obj:0)
STE(6,73)                           -897.785711983006 	(obj:0)
STE(6,74)                            760.464186905741 	(obj:0)
STE(6,75)                           -897.785711983006 	(obj:0)
STE(6,76)                            760.464186905741 	(obj:0)
STE(6,77)                            760.464186905811 	(obj:0)
STE(6,78)                            2418.71408579468 	(obj:0)
STE(6,79)                           -2213.99979785954 	(obj:0)
STE(6,80)                           -555.749898970734 	(obj:0)
STE(6,81)                           -555.749898970726 	(obj:0)
STE(6,82)                            1102.49999991802 	(obj:0)
STE(6,83)                           -555.749898970773 	(obj:0)
STE(6,84)                            1102.49999991797 	(obj:0)
STE(6,85)                            1102.49999991804 	(obj:0)
STE(6,86)                            2760.74989880692 	(obj:0)
STE(6,87)                           -897.785711983007 	(obj:0)
STE(6,88)                            760.464186905741 	(obj:0)
STE(6,89)                             760.46418690581 	(obj:0)
STE(6,90)                            2418.71408579463 	(obj:0)
STE(6,91)                             760.46418690581 	(obj:0)
STE(6,92)                            2418.71408579468 	(obj:0)
STE(6,93)                            2418.71408579463 	(obj:0)
STE(6,94)                            4076.96398468345 	(obj:0)
STE(6,95)                           -2213.99979777763 	(obj:0)
STE(6,96)                           -555.749898888824 	(obj:0)
STE(6,97)                           -555.749898888816 	(obj:0)
STE(6,98)                            1102.49999999993 	(obj:0)
STE(6,99)                           -555.749898888817 	(obj:0)
STE(6,100)                                     1102.5 	(obj:0)
STE(6,101)                                     1102.5 	(obj:0)
STE(6,102)                           2760.74989888881 	(obj:0)
STE(6,103)                          -897.785711901127 	(obj:0)
STE(6,104)                           760.464186987621 	(obj:0)
STE(6,105)                           760.464186987691 	(obj:0)
STE(6,106)                            2418.7140858765 	(obj:0)
STE(6,107)                           760.464186987481 	(obj:0)
STE(6,108)                           2418.71408587652 	(obj:0)
STE(6,109)                           2418.71408587652 	(obj:0)
STE(6,110)                           4076.96398476533 	(obj:0)
STE(6,111)                          -555.749898888817 	(obj:0)
STE(6,112)                                     1102.5 	(obj:0)
STE(6,113)                                     1102.5 	(obj:0)
STE(6,114)                           2760.74989888887 	(obj:0)
STE(6,115)                                     1102.5 	(obj:0)
STE(6,116)                           2760.74989888887 	(obj:0)
STE(6,117)                           2760.74989888882 	(obj:0)
STE(6,118)                           4418.99979777763 	(obj:0)
STE(6,119)                           760.464186904502 	(obj:0)
STE(6,120)                           2418.71408579337 	(obj:0)
STE(6,121)                           2418.71408579332 	(obj:0)
STE(6,122)                           4076.96398468213 	(obj:0)
STE(6,123)                           2418.71408579332 	(obj:0)
STE(6,124)                           4076.96398468213 	(obj:0)
STE(6,125)                           4076.96398468214 	(obj:0)
STE(6,126)                           5735.21388357095 	(obj:0)
y1(6,99)                             1492.42490899993 	(obj:0)
y1(6,101)                            1492.42490899993 	(obj:0)
y1(6,103)                            1492.42490899993 	(obj:0)
y1(6,105)                            1492.42490899993 	(obj:0)
y1(6,107)                            1492.42490900005 	(obj:0)
y1(6,109)                            1492.42490899993 	(obj:0)
y1(6,111)                            1492.42490899993 	(obj:0)
y1(6,113)                            1492.42490899993 	(obj:0)
y1(6,115)                            1492.42490899993 	(obj:0)
y1(6,117)                            1492.42490899993 	(obj:0)
y1(6,119)                            1492.42490899993 	(obj:0)
y1(6,121)                            1492.42490899993 	(obj:0)
y1(6,123)                            1492.42490899993 	(obj:0)
y1(6,125)                            1492.42490899993 	(obj:0)
BG(5)                                4196.29249897686 	(obj:10)
BG(6)                                1149.93060391279 	(obj:10)
AVE(1)                               3259.55177567504 	(obj:0)
AVE(2)                               3259.55588804169 	(obj:0)
WB(3)                                3579.36165208358 	(obj:0)
AVE(3)                               3579.36165209166 	(obj:0)
AVE(4)                               3579.36576445831 	(obj:0)
WB(5)                                3472.77007793901 	(obj:0)
AVE(5)                               3472.77007794174 	(obj:0)
AVE(6)                                3046.3618950668 	(obj:0)
WG(1)                                3259.55177567504 	(obj:10)
WG(2)                                3259.55588804169 	(obj:10)
WG(3)                            8.07779784105262e-009 	(obj:10)
WG(4)                                3579.36576445831 	(obj:10)
WG(5)                            2.73219632859133e-009 	(obj:10)
WG(6)                                 3046.3618950668 	(obj:10)
BG(1)                                936.740723304552 	(obj:10)
BG(2)                                936.736610937901 	(obj:10)
BG(3)                                2673.40993876743 	(obj:10)
BG(4)                                1823.66161418838 	(obj:10)
y1(1,1)                              1492.42490899996 	(obj:0)
y1(2,3)                                   1492.424909 	(obj:0)
y1(2,5)                              1492.42490892631 	(obj:0)
y1(2,6)                          1.24215148389339e-009 	(obj:0)
y1(3,13)                         -7.48690217733383e-008 	(obj:0)
y1(4,15)                              2675.0250910737 	(obj:0)
y1(4,16)                             1182.60018207376 	(obj:0)
y1(4,17)                              2675.0250910737 	(obj:0)
y1(4,18)                             1182.60018207376 	(obj:0)
y1(4,19)                              2675.0250910737 	(obj:0)
y1(4,20)                             1182.60018207381 	(obj:0)
y1(4,21)                              2675.0250910737 	(obj:0)
y1(4,22)                             1182.60018207376 	(obj:0)
y1(4,23)                              2675.0250910737 	(obj:0)
y1(4,24)                             1182.60018207376 	(obj:0)
y1(4,25)                              2675.0250910737 	(obj:0)
y1(4,26)                             1182.60018207375 	(obj:0)
y1(4,27)                              2675.0250910737 	(obj:0)
y1(4,28)                             1182.60018207376 	(obj:0)
y1(4,29)                              2675.0250910737 	(obj:0)
y1(4,30)                             1182.60018207376 	(obj:0)
y1(5,31)                             1492.42490899994 	(obj:0)
y1(5,33)                             1492.42490899994 	(obj:0)
y1(5,35)                             1492.42490899994 	(obj:0)
y1(5,37)                             1492.42490899994 	(obj:0)
y1(5,39)                             1492.42490899994 	(obj:0)
y1(5,41)                             1492.42490899994 	(obj:0)
y1(5,43)                             1492.42490899994 	(obj:0)
y1(5,45)                             1492.42490899994 	(obj:0)
y1(5,47)                             1492.42490899994 	(obj:0)
y1(5,49)                             1492.42490899994 	(obj:0)
y1(5,51)                             1492.42490899994 	(obj:0)
y1(5,53)                             1492.42490899993 	(obj:0)
y1(5,55)                             1492.42490899994 	(obj:0)
y1(5,57)                             1492.42490899994 	(obj:0)
y1(5,59)                             1492.42490899994 	(obj:0)
y1(5,61)                             1492.42490899994 	(obj:0)
y1(6,63)                             1492.42490899993 	(obj:0)
y1(6,65)                             1492.42490899993 	(obj:0)
y1(6,67)                             1492.42490899993 	(obj:0)
y1(6,69)                             1492.42490899993 	(obj:0)
y1(6,71)                             1492.42490899993 	(obj:0)
y1(6,73)                             1492.42490899993 	(obj:0)
y1(6,75)                             1492.42490899993 	(obj:0)
y1(6,77)                             1492.42490899993 	(obj:0)
y1(6,79)                             1492.42490899993 	(obj:0)
y1(6,81)                             1492.42490899993 	(obj:0)
y1(6,83)                             1492.42490899993 	(obj:0)
y1(6,85)                             1492.42490899993 	(obj:0)
y1(6,87)                             1492.42490899993 	(obj:0)
y1(6,89)                             1492.42490899993 	(obj:0)
y1(6,91)                             1492.42490899993 	(obj:0)
y1(6,93)                             1492.42490899993 	(obj:0)
y1(6,95)                             1492.42490899993 	(obj:0)
y1(6,97)                             1492.42490899993 	(obj:0)
y2(3,8)                              1385.48851144899 	(obj:0)
y2(3,10)                             1385.48851144899 	(obj:0)
y2(3,12)                             1385.48851144895 	(obj:0)
y2(3,14)                             1385.48851144895 	(obj:0)
